# 72504
param k := 6;
param n := 60;
param s := 1;
set E :=  (0,28) (0,34) (1,32) (1,34) (2,31) (2,32) (3,45) (4,26) (4,32) (4,39) (5,13) (6,14) (6,47) (7,45) (8,22) (8,44) (8,57) (9,23) (9,31) (10,21) (10,45) (11,43) (11,57) (12,15) (12,41) (12,54) (13,38) (14,17) (14,36) (14,45) (15,29) (15,42) (16,33) (17,48) (17,56) (18,27) (18,34) (19,39) (20,24) (20,38) (21,52) (22,34) (25,46) (25,54) (26,47) (28,33) (28,55) (29,32) (30,51) (31,37) (35,39) (35,54) (35,56) (35,59) (36,40) (38,48) (43,53) (48,49) (48,50) (48,51) (51,58);